
List of user-set options:

                                    Name   Value                used
                           compl_inf_tol = 1                     yes
                         constr_viol_tol = 1                     yes
                            dual_inf_tol = 1000                  yes
                           linear_solver = ma97                  yes
                              ma86_small = 1e-30                  no
                                  ma86_u = 0.0001                 no
                              ma97_order = best                  yes
                              ma97_small = 1e-30                 yes
                            ma97_switch1 = at_start              yes
                            ma97_switch2 = od_hd_reuse           yes
                                  ma97_u = 1e-06                 yes
                               ma97_umax = 0.5                   yes
                                max_iter = 1000                  yes
                    max_refinement_steps = 20                    yes
                    min_refinement_steps = 5                     yes
                                 mu_init = 1e-06                 yes
           mu_superlinear_decrease_power = 1.25                  yes
                   nlp_scaling_min_value = 1e-08                 yes
                        option_file_name = Preset_Case_467_pf.opt  yes
                             output_file = ./tmp/Preset_Case_467_pf.output  yes
                      print_user_options = yes                   yes
        required_infeasibility_reduction = 1                      no
                                     tol = 1e-08                 yes
                   warm_start_bound_frac = 1e-20                 yes
                   warm_start_bound_push = 1e-20                 yes
                   warm_start_init_point = yes                   yes
              warm_start_mult_bound_push = 1e-20                 yes
                warm_start_mult_init_max = 1e+40                 yes
             warm_start_slack_bound_frac = 1e-20                 yes
             warm_start_slack_bound_push = 1e-20                 yes

******************************************************************************
This program contains Ipopt, a library for large-scale nonlinear optimization.
 Ipopt is released as open source code under the Eclipse Public License (EPL).
         For more information visit http://projects.coin-or.org/Ipopt
******************************************************************************

This is Ipopt version 3.12.10, running with linear solver ma97.

Number of nonzeros in equality constraint Jacobian...:   123443
Number of nonzeros in inequality constraint Jacobian.:      213
Number of nonzeros in Lagrangian Hessian.............:    49069

Total number of variables............................:    31591
                     variables with only lower bounds:    12912
                variables with lower and upper bounds:    15130
                     variables with only upper bounds:        0
Total number of equality constraints.................:    31483
Total number of inequality constraints...............:       25
        inequality constraints with only lower bounds:        4
   inequality constraints with lower and upper bounds:        0
        inequality constraints with only upper bounds:       21

iter    objective    inf_pr   inf_du lg(mu)  ||d||  lg(rg) alpha_du alpha_pr  ls
   0 -5.2818208e+00 4.05e-03 1.02e+00  -6.0 0.00e+00    -  0.00e+00 0.00e+00   0
   1 -5.2811602e+00 1.13e-01 1.02e+00  -6.0 2.47e+05    -  1.39e-04 1.09e-04h  5
   2 -5.2828305e+00 1.13e-01 5.13e+01  -6.0 9.22e+03    -  2.26e-01 2.04e-03h  1
   3 -5.4368120e+00 5.74e+01 4.27e+02  -6.0 8.30e+03    -  1.36e-01 1.89e-01f  1
   4 -5.4366698e+00 5.61e+01 9.45e+03  -6.0 2.83e+01  -4.0 2.20e-02 2.38e-02h  1
   5 -5.4370784e+00 4.97e+01 2.65e+04  -6.0 1.05e+01  -4.5 1.34e-01 1.13e-01h  1
   6 -5.4404661e+00 4.23e+01 2.25e+04  -6.0 3.03e+01  -5.0 2.06e-01 1.50e-01h  1
   7 -5.4970838e+00 8.46e+00 4.45e+03  -6.0 7.81e+01  -5.4 2.51e-01 8.00e-01h  1
   8 -5.5827199e+00 6.64e+00 3.49e+03  -6.0 2.29e+02  -5.9 6.65e-02 2.15e-01h  1
   9 -5.5984475e+00 3.69e+00 7.28e+03  -6.0 2.31e+01  -4.6 5.23e-02 4.45e-01h  1
iter    objective    inf_pr   inf_du lg(mu)  ||d||  lg(rg) alpha_du alpha_pr  ls
  10 -5.7306500e+00 4.03e+00 1.34e+03  -6.0 3.97e+01  -5.1 4.58e-05 1.00e+00h  1
  11 -5.7425182e+00 1.96e+00 2.60e+02  -6.0 4.19e+01  -5.5 7.52e-01 1.00e+00h  1
  12 -5.7528132e+00 1.58e+00 2.19e+02  -6.0 8.30e+01  -6.0 2.41e-01 2.04e-01h  1
  13 -5.7677705e+00 1.20e+00 1.44e+03  -6.0 1.46e+02  -6.5 4.74e-01 2.43e-01h  1
  14 -5.8092053e+00 6.70e-01 4.54e+03  -6.0 2.75e+02  -7.0 1.00e+00 4.36e-01h  1
  15 -5.8718589e+00 1.46e+00 1.99e+02  -6.0 3.24e+02  -7.4 6.24e-01 7.33e-01h  1
  16 -5.8742599e+00 1.46e+00 3.18e+03  -6.0 1.08e+03  -7.9 1.38e-01 4.09e-02h  1
  17 -5.8955838e+00 1.74e+00 1.10e+04  -6.0 7.31e+02  -8.4 9.73e-01 6.12e-01h  1
  18 -5.9045750e+00 2.90e+00 1.19e+04  -6.0 9.70e+02  -8.9 4.09e-01 3.11e-01h  1
  19 -5.9227708e+00 2.90e+01 1.53e+04  -6.0 1.61e+03  -9.4 9.22e-01 7.32e-01h  1
iter    objective    inf_pr   inf_du lg(mu)  ||d||  lg(rg) alpha_du alpha_pr  ls
  20 -5.9287142e+00 3.83e+01 1.10e+04  -6.0 4.03e+03  -9.8 2.12e-01 3.07e-01h  1
  21 -5.9342810e+00 3.04e+01 1.20e+05  -6.0 3.46e+03    -  6.18e-01 2.27e-01h  1
  22 -5.9437169e+00 3.22e+01 8.85e+04  -6.0 2.22e+03    -  4.89e-02 3.95e-01h  1
  23 -5.9452175e+00 6.24e+01 8.42e+04  -6.0 1.89e+04    -  4.60e-02 7.23e-02h  1
  24 -5.9555712e+00 4.14e+01 3.49e+05  -6.0 8.64e+02    -  1.19e-01 3.62e-01h  1
  25 -5.9563886e+00 4.06e+01 1.45e+05  -6.0 1.14e+03    -  1.77e-01 2.14e-02h  1
  26 -5.9574123e+00 3.95e+01 3.11e+05  -6.0 5.47e+02    -  9.44e-02 2.58e-02h  1
  27r-5.9574123e+00 3.95e+01 1.00e+03   1.5 0.00e+00    -  0.00e+00 1.15e-07R  2
  28r-5.9623093e+00 3.95e+01 1.00e+03   1.5 1.55e+05    -  7.49e-08 6.20e-08f  1
  29 -5.9622749e+00 3.92e+01 1.83e+03  -6.0 1.45e+02    -  3.80e-06 6.94e-03h  1
iter    objective    inf_pr   inf_du lg(mu)  ||d||  lg(rg) alpha_du alpha_pr  ls
  30 -5.9618409e+00 3.61e+01 1.68e+03  -6.0 1.44e+02    -  4.72e-02 7.87e-02h  1
  31 -5.9612440e+00 3.20e+01 1.49e+03  -6.0 1.26e+02    -  8.88e-02 1.15e-01h  1
  32 -5.9596015e+00 2.07e+01 9.61e+02  -6.0 1.04e+02    -  3.35e-01 3.54e-01h  1
  33 -5.9565758e+00 3.06e-01 7.07e+01  -6.0 5.66e+01    -  6.47e-01 1.00e+00h  1
  34 -5.9570674e+00 2.01e-04 2.69e+01  -6.0 6.56e-01    -  8.09e-01 1.00e+00h  1
  35 -5.9589962e+00 2.23e-03 5.39e+00  -6.0 3.41e+00    -  8.26e-01 1.00e+00h  1
  36 -5.9614689e+00 1.11e-02 1.05e+00  -6.0 1.98e+01    -  8.35e-01 1.00e+00h  1
  37 -5.9700991e+00 3.50e-01 2.82e+00  -6.0 1.29e+02    -  7.98e-01 8.59e-01h  1
  38 -5.9869383e+00 1.31e+00 9.52e+00  -6.0 5.58e+02    -  3.27e-01 3.52e-01h  1
  39 -5.9840235e+00 3.64e-01 4.33e+01  -6.0 5.18e+01    -  5.36e-01 7.56e-01h  1
iter    objective    inf_pr   inf_du lg(mu)  ||d||  lg(rg) alpha_du alpha_pr  ls
  40 -5.9909765e+00 5.97e-01 4.17e+01  -6.0 3.04e+02    -  7.17e-01 2.92e-01h  1
  41 -5.9995303e+00 6.79e-01 5.01e+00  -6.0 1.51e+02    -  9.35e-01 1.00e+00h  1
  42 -6.0006937e+00 7.63e-01 9.08e+00  -6.0 1.19e+03    -  1.64e-01 1.24e-01h  1
  43 -6.0013782e+00 3.60e+00 1.41e+01  -6.0 4.81e+02    -  8.45e-01 9.20e-01h  1
  44 -6.0013255e+00 3.60e+00 2.45e+03  -6.0 3.03e+03    -  1.79e-01 2.23e-02h  5
  45 -6.0014382e+00 1.78e+01 2.31e+03  -6.0 1.39e+04    -  6.44e-02 6.49e-02h  1
  46 -6.0013224e+00 1.73e+01 2.18e+03  -6.0 3.04e+03    -  6.44e-02 7.07e-02h  4
  47 -6.0012944e+00 1.71e+01 2.19e+03  -6.0 3.31e+03    -  1.66e-01 1.59e-02h  6
  48 -6.0012831e+00 1.70e+01 2.14e+03  -6.0 2.79e+03    -  4.22e-01 4.25e-03h  8
  49 -6.0012763e+00 1.70e+01 2.25e+03  -6.0 3.33e+03    -  4.94e-01 3.92e-03h  8
iter    objective    inf_pr   inf_du lg(mu)  ||d||  lg(rg) alpha_du alpha_pr  ls
  50 -6.0012717e+00 1.69e+01 2.22e+03  -6.0 2.55e+03    -  4.80e-02 2.52e-03h  9
  51 -5.9988809e+00 1.55e-01 3.63e+02  -6.0 1.38e+03    -  2.08e-01 1.00e+00H  1
  52 -5.9990049e+00 2.79e+00 1.02e+01  -6.0 4.29e+02    -  9.89e-01 9.84e-01h  1
  53 -5.9989676e+00 8.22e-01 1.07e-01  -6.0 2.29e+02    -  1.00e+00 1.00e+00h  1
  54 -5.9989594e+00 1.81e-01 1.44e-02  -6.0 1.09e+02    -  1.00e+00 1.00e+00h  1
  55 -5.9989568e+00 3.07e-02 5.30e-03  -6.0 4.48e+01    -  1.00e+00 1.00e+00h  1
  56 -5.9989561e+00 2.67e-03 4.93e-04  -6.0 1.32e+01    -  1.00e+00 1.00e+00h  1
  57 -5.9989561e+00 3.03e-05 5.61e-06  -6.0 1.40e+00    -  1.00e+00 1.00e+00h  1
  58 -5.9989561e+00 4.07e-09 7.43e-10  -6.0 1.63e-02    -  1.00e+00 1.00e+00h  1
  59 -5.9990644e+00 3.04e+00 2.52e+01  -7.5 6.01e+02    -  6.54e-01 7.40e-01h  1
iter    objective    inf_pr   inf_du lg(mu)  ||d||  lg(rg) alpha_du alpha_pr  ls
  60 -5.9990625e+00 7.87e-01 1.32e+01  -7.5 1.59e+02    -  1.00e+00 8.36e-01h  1
  61 -5.9990590e+00 1.28e-02 1.92e-02  -7.5 2.77e+01    -  1.00e+00 1.00e+00h  1
  62 -5.9990589e+00 1.82e-06 7.31e-07  -7.5 3.52e-01    -  1.00e+00 1.00e+00h  1
  63 -5.9990589e+00 2.95e-10 5.72e-12  -7.5 2.99e-05    -  1.00e+00 1.00e+00h  1
  64 -5.9990604e+00 4.11e-03 8.41e-01  -9.0 1.93e+01    -  9.26e-01 8.35e-01h  1
  65 -5.9990607e+00 1.62e-04 2.28e-04  -9.0 3.20e+00    -  1.00e+00 1.00e+00h  1
  66 -5.9990607e+00 2.92e-10 4.21e-09  -9.0 2.81e-03    -  1.00e+00 1.00e+00h  1

Number of Iterations....: 66

                                   (scaled)                 (unscaled)
Objective...............:  -4.6867661744527656e+00   -5.9990607032995396e+00
Dual infeasibility......:   4.2089347090656866e-09    5.3874364276040790e-09
Constraint violation....:   2.9154495473620451e-10    2.9154495473620451e-10
Complementarity.........:   1.1255920066591940e-09    1.4407577685237683e-09
Overall NLP error.......:   4.2089347090656866e-09    5.3874364276040790e-09


Number of objective function evaluations             = 118
Number of objective gradient evaluations             = 67
Number of equality constraint evaluations            = 118
Number of inequality constraint evaluations          = 118
Number of equality constraint Jacobian evaluations   = 68
Number of inequality constraint Jacobian evaluations = 68
Number of Lagrangian Hessian evaluations             = 66
Total CPU secs in IPOPT (w/o function evaluations)   =    154.023
Total CPU secs in NLP function evaluations           =      3.906

EXIT: Optimal Solution Found.
